1
76
75
2
7
8
17
18
37
36
38
39
35
20
5
4
3
6
9
11
16
15
74
14
13
12
10
19
31
30
29
32
33
34
40
41
60
59
58
56
51
67
70
68
69
47
48
27
26
28
43
42
54
53
52
55
57
61
62
63
64
73
72
71
65
66
50
49
44
45
46
24
25
21
22
23
1
